\ LP format - for model browsing. Use MPS format to capture full model detail.
Maximize
  - 6 y4 - 6 y2 - 10 y1 - 2 y0 + 5 x41 + 9 x31 + 2 x21 + 7 x04 + 8 x03
   + 3 x02
Subject To
 R0: - x41 + x04 = 0
 R1: - y4 + x04 = 0
 R2: - x31 + x03 = 0
 R3: - y3 + x03 = 0
 R4: - x21 + x02 = 0
 R5: - y2 + x02 = 0
 R6: x41 + x31 + x21 = 1
 R7: - y1 + x41 + x31 + x21 = 0
 R8: - x04 - x03 - x02 = -1
 R9: - y0 = 0
Bounds
Binaries
 y4 y3 y2 y1 y0 x41 x31 x21 x04 x03 x02
End
